(declare-const ent0 Bool)
(declare-const ent1 Bool)
(declare-const ent2 Bool)
(declare-const ent3 Bool)
(declare-const ent4 Bool)
(declare-const ent5 Bool)
(declare-const ent6 Bool)
(declare-const ent7 Bool)
(declare-const ent8 Bool)
(declare-const ent9 Bool)
(declare-const ent10 Bool)
(declare-const ent11 Bool)
(declare-const ent12 Bool)
(declare-const ent13 Bool)
(declare-const ent14 Bool)
(declare-const ent15 Bool)
(declare-const reac0 Bool)
(declare-const dir0 Bool)
(declare-const coef0 Int)
(declare-const reac1 Bool)
(declare-const dir1 Bool)
(declare-const coef1 Int)
(declare-const reac2 Bool)
(declare-const dir2 Bool)
(declare-const coef2 Int)
(declare-const reac3 Bool)
(declare-const dir3 Bool)
(declare-const coef3 Int)
(declare-const reac4 Bool)
(declare-const dir4 Bool)
(declare-const coef4 Int)
(declare-const reac5 Bool)
(declare-const dir5 Bool)
(declare-const coef5 Int)
(declare-const reac6 Bool)
(declare-const dir6 Bool)
(declare-const coef6 Int)
(declare-const reac7 Bool)
(declare-const dir7 Bool)
(declare-const coef7 Int)
(declare-const reac8 Bool)
(declare-const dir8 Bool)
(declare-const coef8 Int)
(declare-const reac9 Bool)
(declare-const dir9 Bool)
(declare-const coef9 Int)
(declare-const reac10 Bool)
(declare-const dir10 Bool)
(declare-const coef10 Int)
(declare-const reac11 Bool)
(declare-const dir11 Bool)
(declare-const coef11 Int)
(assert (= dir0 (< coef0 0)))
(assert (= dir1 (< coef1 0)))
(assert (= dir2 (< coef2 0)))
(assert (= dir3 (< coef3 0)))
(assert (= dir4 (< coef4 0)))
(assert (= dir5 (< coef5 0)))
(assert (= dir6 (< coef6 0)))
(assert (= dir7 (< coef7 0)))
(assert (= dir8 (< coef8 0)))
(assert (= dir9 (< coef9 0)))
(assert (= dir10 (< coef10 0)))
(assert (= dir11 (< coef11 0)))
(assert (=> reac0 (and(or ent3 ent0)(or ent6))))
(assert (=> reac1 (and(or ent7 ent4)(or ent6))))
(assert (=> reac2 (and(or ent2 ent2)(or ent4))))
(assert (=> reac3 (and(or ent11 ent1)(or ent14))))
(assert (=> reac4 (and(or ent15 ent12)(or ent14))))
(assert (=> reac5 (and(or ent10 ent10)(or ent12))))
(assert (=> reac6 (and(or ent2 ent15)(or ent8))))
(assert (=> reac7 (and(or ent10 ent7)(or ent9))))
(assert (=> reac8 (and(or ent2 ent0)(or ent5))))
(assert (=> reac9 (and(or ent7 ent3)(or ent5))))
(assert (=> reac10 (and(or ent10 ent1)(or ent13))))
(assert (=> reac11 (and(or ent15 ent11)(or ent13))))
(assert (=> ent0 (or (and (not dir0) reac0) (and (not dir8) reac8))))
(assert (=> ent0 ((_ at-most 1) (and (not dir0) reac0) (and (not dir8) reac8))))
(assert (=> ent1 (or (and (not dir3) reac3) (and (not dir10) reac10))))
(assert (=> ent1 ((_ at-most 1) (and (not dir3) reac3) (and (not dir10) reac10))))
(assert (=> ent2 (or (and (not dir2) reac2) (and (not dir6) reac6) (and (not dir8) reac8))))
(assert (=> ent2 ((_ at-most 1) (and (not dir2) reac2) (and (not dir6) reac6) (and (not dir8) reac8))))
(assert (=> ent3 (or (and (not dir0) reac0) (and (not dir9) reac9))))
(assert (=> ent3 ((_ at-most 1) (and (not dir0) reac0) (and (not dir9) reac9))))
(assert (=> ent4 (or (and (not dir1) reac1) (and dir2 reac2))))
(assert (=> ent4 ((_ at-most 1) (and (not dir1) reac1) (and dir2 reac2))))
(assert (=> ent5 (or (and dir8 reac8) (and dir9 reac9))))
(assert (=> ent5 ((_ at-most 1) (and dir8 reac8) (and dir9 reac9))))
(assert (=> ent6 (or (and dir0 reac0) (and dir1 reac1))))
(assert (=> ent6 ((_ at-most 1) (and dir0 reac0) (and dir1 reac1))))
(assert (=> ent7 (or (and (not dir1) reac1) (and (not dir7) reac7) (and (not dir9) reac9))))
(assert (=> ent7 ((_ at-most 1) (and (not dir1) reac1) (and (not dir7) reac7) (and (not dir9) reac9))))
(assert (=> ent8 (or (and dir6 reac6))))
(assert (=> ent8 ((_ at-most 1) (and dir6 reac6))))
(assert (=> ent9 (or (and dir7 reac7))))
(assert (=> ent9 ((_ at-most 1) (and dir7 reac7))))
(assert (=> ent10 (or (and (not dir5) reac5) (and (not dir7) reac7) (and (not dir10) reac10))))
(assert (=> ent10 ((_ at-most 1) (and (not dir5) reac5) (and (not dir7) reac7) (and (not dir10) reac10))))
(assert (=> ent11 (or (and (not dir3) reac3) (and (not dir11) reac11))))
(assert (=> ent11 ((_ at-most 1) (and (not dir3) reac3) (and (not dir11) reac11))))
(assert (=> ent12 (or (and (not dir4) reac4) (and dir5 reac5))))
(assert (=> ent12 ((_ at-most 1) (and (not dir4) reac4) (and dir5 reac5))))
(assert (=> ent13 (or (and dir10 reac10) (and dir11 reac11))))
(assert (=> ent13 ((_ at-most 1) (and dir10 reac10) (and dir11 reac11))))
(assert (=> ent14 (or (and dir3 reac3) (and dir4 reac4))))
(assert (=> ent14 ((_ at-most 1) (and dir3 reac3) (and dir4 reac4))))
(assert (=> ent15 (or (and (not dir4) reac4) (and (not dir6) reac6) (and (not dir11) reac11))))
(assert (=> ent15 ((_ at-most 1) (and (not dir4) reac4) (and (not dir6) reac6) (and (not dir11) reac11))))
(assert (=> (and reac0 (not dir0)) (and true ent3)))
(assert (=> (and reac0 dir0) (and true ent6)))
(assert (=> (and reac1 (not dir1)) (and true ent7 ent4)))
(assert (=> (and reac1 dir1) (and true ent6)))
(assert (=> (and reac2 (not dir2)) (and true ent2 ent2)))
(assert (=> (and reac2 dir2) (and true ent4)))
(assert (=> (and reac3 (not dir3)) (and true ent11)))
(assert (=> (and reac3 dir3) (and true ent14)))
(assert (=> (and reac4 (not dir4)) (and true ent15 ent12)))
(assert (=> (and reac4 dir4) (and true ent14)))
(assert (=> (and reac5 (not dir5)) (and true ent10 ent10)))
(assert (=> (and reac5 dir5) (and true ent12)))
(assert (=> (and reac6 (not dir6)) (and true ent2 ent15)))
(assert (=> (and reac6 dir6) (and true ent8)))
(assert (=> (and reac7 (not dir7)) (and true ent10 ent7)))
(assert (=> (and reac7 dir7) (and true ent9)))
(assert (=> (and reac8 (not dir8)) (and true ent2)))
(assert (=> (and reac8 dir8) (and true ent5)))
(assert (=> (and reac9 (not dir9)) (and true ent7 ent3)))
(assert (=> (and reac9 dir9) (and true ent5)))
(assert (=> (and reac10 (not dir10)) (and true ent10)))
(assert (=> (and reac10 dir10) (and true ent13)))
(assert (=> (and reac11 (not dir11)) (and true ent15 ent11)))
(assert (=> (and reac11 dir11) (and true ent13)))
(assert (=> ent0 (> (+ (ite reac0 (* -1 coef0) 0) (ite reac8 (* -1 coef8) 0) 0) 0)))
(assert (=> ent1 (> (+ (ite reac3 (* -1 coef3) 0) (ite reac10 (* -1 coef10) 0) 0) 0)))
(assert (=> ent2 (> (+ (ite reac2 (* -2 coef2) 0) (ite reac6 (* -1 coef6) 0) (ite reac8 (* -1 coef8) 0) 0) 0)))
(assert (=> ent3 (> (+ (ite reac0 (* -1 coef0) 0) (ite reac9 (* -1 coef9) 0) 0) 0)))
(assert (=> ent4 (> (+ (ite reac1 (* -1 coef1) 0) (ite reac2 (* 1 coef2) 0) 0) 0)))
(assert (=> ent5 (> (+ (ite reac8 (* 1 coef8) 0) (ite reac9 (* 1 coef9) 0) 0) 0)))
(assert (=> ent6 (> (+ (ite reac0 (* 1 coef0) 0) (ite reac1 (* 1 coef1) 0) 0) 0)))
(assert (=> ent7 (> (+ (ite reac1 (* -1 coef1) 0) (ite reac7 (* -1 coef7) 0) (ite reac9 (* -1 coef9) 0) 0) 0)))
(assert (=> ent8 (> (+ (ite reac6 (* 1 coef6) 0) 0) 0)))
(assert (=> ent9 (> (+ (ite reac7 (* 1 coef7) 0) 0) 0)))
(assert (=> ent10 (> (+ (ite reac5 (* -2 coef5) 0) (ite reac7 (* -1 coef7) 0) (ite reac10 (* -1 coef10) 0) 0) 0)))
(assert (=> ent11 (> (+ (ite reac3 (* -1 coef3) 0) (ite reac11 (* -1 coef11) 0) 0) 0)))
(assert (=> ent12 (> (+ (ite reac4 (* -1 coef4) 0) (ite reac5 (* 1 coef5) 0) 0) 0)))
(assert (=> ent13 (> (+ (ite reac10 (* 1 coef10) 0) (ite reac11 (* 1 coef11) 0) 0) 0)))
(assert (=> ent14 (> (+ (ite reac3 (* 1 coef3) 0) (ite reac4 (* 1 coef4) 0) 0) 0)))
(assert (=> ent15 (> (+ (ite reac4 (* -1 coef4) 0) (ite reac6 (* -1 coef6) 0) (ite reac11 (* -1 coef11) 0) 0) 0)))
(assert ((_ at-most 10) ent0 ent1 ent2 ent3 ent4 ent5 ent6 ent7 ent8 ent9 ent10 ent11 ent12 ent13 ent14 ent15))
(assert ((_ at-least 10) ent0 ent1 ent2 ent3 ent4 ent5 ent6 ent7 ent8 ent9 ent10 ent11 ent12 ent13 ent14 ent15))
(assert ((_ at-least 10) reac0 reac1 reac2 reac3 reac4 reac5 reac6 reac7 reac8 reac9 reac10 reac11))
(assert (not (and reac3 (not dir3) reac4 dir4 reac5 dir5 reac10 (not dir10) reac11 dir11 ent10 ent11 ent12 ent13 ent14 (not reac0) (not reac1) (not reac2) (not reac6) (not reac7) (not reac8) (not reac9))))
(assert (not (and reac0 (not dir0) reac1 dir1 reac2 dir2 reac8 (not dir8) reac9 dir9 ent2 ent3 ent4 ent5 ent6 (not reac3) (not reac4) (not reac5) (not reac6) (not reac7) (not reac10) (not reac11))))
(assert (not (and reac0 (not dir0) reac1 dir1 reac2 dir2 reac3 (not dir3) reac4 dir4 reac5 dir5 reac8 (not dir8) reac9 dir9 reac10 (not dir10) reac11 dir11 ent2 ent3 ent4 ent5 ent6 ent10 ent11 ent12 ent13 ent14 (not reac6) (not reac7))))
(check-sat)
(get-model)
